Running MiniSat on FULL_RUN_MINISAT\bd8bc25be2b36c64b38459c17e815814-pcmax-scheduling-m11-1517-6802-UNSAT.sanitized.cnf... 
============================[ Problem Statistics ]=============================
|                                                                             |
|  Number of variables:          1516                                         |
|  Number of clauses:            6635                                         |
|  Parse time:                   0.03 s                                       |
|                                                                             |
============================[ Search Statistics ]==============================
| Conflicts |          ORIGINAL         |          LEARNT          | Progress |
|           |    Vars  Clauses Literals |    Limit  Clauses Lit/Cl |          |
===============================================================================
|       100 |    1454     6625    17953 |     2429      100      4 |  4.090 % |
|       250 |    1454     6625    17953 |     2672      250     16 |  4.090 % |
|       475 |    1454     6625    17953 |     2939      475     31 |  4.090 % |
|       812 |    1454     6625    17953 |     3233      812     43 |  4.090 % |
|      1318 |    1454     6625    17953 |     3556     1318     52 |  4.090 % |
|      2077 |    1454     6625    17953 |     3912     2077     58 |  4.090 % |
|      3216 |    1454     6625    17953 |     4303     3216     61 |  4.090 % |
|      4924 |    1454     6625    17953 |     4733     2717     54 |  4.090 % |
|      7486 |    1454     6625    17953 |     5207     2773     54 |  4.090 % |
|     11330 |    1454     6625    17953 |     5727     3956     56 |  4.090 % |
|     17096 |    1454     6625    17953 |     6300     3757     55 |  4.090 % |
|     25745 |    1454     6625    17953 |     6930     5986     61 |  4.090 % |
|     38719 |    1454     6625    17953 |     7623     4519     51 |  4.090 % |
|     58180 |    1454     6625    17953 |     8386     4481     52 |  4.090 % |
Timeout reached. Terminating MiniSat... 
Finished MiniSat on FULL_RUN_MINISAT\bd8bc25be2b36c64b38459c17e815814-pcmax-scheduling-m11-1517-6802-UNSAT.sanitized.cnf 
